c --- [ banner ] -------------------------------------------------------------
c 
c CaDiCaL SAT Solver
c Copyright (c) 2016-2024
c A. Biere, M. Fleury, N. Froleyks, K. Fazekas, F. Pollitt, T. Faller
c JKU Linz, University of Freiburg, TU Wien
c 
c Version 2.1.3 f13d74439a5b5c963ac5b02d05ce93a8098018b8
c g++ (Gentoo 12.3.1_p20230526 p2) 12.3.1 20230526 -Wall -Wextra -O3 -DNDEBUG
c Thu Apr 10 08:26:21 EDT 2025 Linux narval2.narval.calcul.quebec 4.18.0-553.40.1.el8_10.x86_64 x86_64
c 
c --- [ parsing input ] ------------------------------------------------------
c 
c reading DIMACS file from 'cnfs//php_10.cnf'
c opening file to read 'cnfs//php_10.cnf'
c found 'p cnf 110 561' header
c parsed 561 clauses in 0.00 seconds process time
c 
c --- [ options ] ------------------------------------------------------------
c 
c all options are set to their default value
c 
c --- [ solving ] ------------------------------------------------------------
c 
c time measured in process time since initialization
c 
c  seconds  reductions  redundant irredundant
c         MB    restarts       trail    variables
c          level   conflicts       glue     remaining
c 
c *  0.00  4  0 0   0    0    0  0% 0  561 110 100%
c {  0.00  4  0 0   0    0    0  0% 0  561 110 100%
c -  0.00  4  9 1   1  301  117 99% 8  561 110 100%
c -  0.01  4 10 2  47  904  308 98% 8  561 110 100%
c }  0.01  4 10 2  47 1000  342 98% 8  561 110 100%
c [  0.01  4  0 2  47 1000  342  0% 0  561 110 100%
c O  0.01  4  8 2  47 1003  345 100% 7  561 110 100%
c -  0.01  4 12 3  47 1804  649 96% 9  561 110 100%
c ]  0.02  4 13 3  48 3001 1417 96% 10  561 110 100%
c {  0.02  4 10 3  48 3001 1417 98% 8  561 110 100%
c F  0.02  4 10 3  48 3004 1419 98% 8  561 110 100%
c -  0.02  4 10 4  48 3004 1036 98% 8  561 110 100%
c -  0.04  4 10 5  78 4504 1046 97% 8  561 110 100%
c s  0.04  4 10 5  99 4702  695 97% 8  561 110 100%
c w  0.04  5 10 5  99 4702  695 97% 8  561 110 100%
c e  0.04  5 10 5  99 4702   84 97% 8  550  99 90%
c s  0.04  5 10 5  99 4702   64 97% 8  550  99 90%
c ^  0.04  5 10 5  99 4702   64 97% 8  550  99 90%
c #  0.05  5 10 5 195 6007  556 94% 8  550  99 90%
c -  0.05  5 10 6 217 6307  639 94% 8  550  99 90%
c 
c  seconds  reductions  redundant irredundant
c         MB    restarts       trail    variables
c          level   conflicts       glue     remaining
c 
c }  0.06  5 10 6 260 7002  891 93% 8  550  99 90%
c [  0.06  5 13 6 260 7002  891 96% 10  550  99 90%
c -  0.07  5 15 7 261 8408 1509 92% 11  550  99 90%
c I  0.08  5 15 7 262 10009 2439 90% 11  550  99 90%
c -  0.09  5 20 8 263 10809 2265 89% 13  550  99 90%
c -  0.12  5 25 9 265 13510 2899 88% 16  550  99 90%
c s  0.14  5 26 9 265 14598 3413 87% 17  550  99 90%
c w  0.14  5 26 9 265 14598 3413 87% 17  550  99 90%
c s  0.14  5 26 9 265 14598 3324 87% 17  550  99 90%
c ^  0.14  5 26 9 265 14598 3324 87% 17  550  99 90%
c ]  0.15  5 27 9 265 15002 3670 87% 17  550  99 90%
c {  0.15  5 10 9 265 15002 3670 93% 8  550  99 90%
c B  0.15  5 10 9 265 15011 3676 93% 8  550  99 90%
c -  0.16  5 11 10 653 16512 2474 92% 9  550  99 90%
c -  0.19  5 12 11 1507 19813 1471 90% 11  550  99 90%
c W  0.20  5 12 11 1804 21012 1833 90% 11  550  99 90%
c -  0.22  5 12 12 1807 23415 1896 90% 11  550  99 90%
c -  0.25  5 12 13 1838 27315 2821 89% 10  550  99 90%
c F  0.26  5 12 13 1838 28014 3207 89% 10  550  99 90%
c s  0.27  5 12 13 1842 29443 3097 89% 10  550  99 90%
c 
c  seconds  reductions     redundant  irredundant
c         MB     restarts         trail     variables
c          level      conflicts       glue      remaining
c 
c w  0.27  5 12 13 1842 29443 3097 89% 10  550  99 90%
c s  0.28  5 12 13 1842 29443 2446 89% 10  550  99 90%
c ^  0.28  5 12 13 1842 29443 2446 89% 10  550  99 90%
c }  0.29  5 12 13 1868 31003 3317 89% 10  550  99 90%
c [  0.29  5 27 13 1868 31003 3317 87% 17  550  99 90%
c -  0.29  5 26 14 1868 31516 2483 87% 17  550  99 90%
c B  0.34  5 23 14 1871 36016 5091 86% 15  550  99 90%
c -  0.34  6 23 15 1871 36019 3555 86% 15  550  99 90%
c -  0.39  6 25 16 1874 40819 4511 85% 17  550  99 90%
c W  0.45  6 24 16 1875 45018 7329 84% 17  550  99 90%
c -  0.47  6 24 17 1875 45920 5241 84% 16  550  99 90%
c s  0.53  6 24 17 1876 49235 7004 84% 16  550  99 90%
c w  0.53  6 24 17 1876 49235 7004 84% 16  550  99 90%
c s  0.53  6 24 17 1876 49235 6931 84% 16  550  99 90%
c ^  0.53  6 24 17 1876 49235 6931 84% 16  550  99 90%
c -  0.57  7 23 18 1876 51322 5311 84% 16  550  99 90%
c O  0.64  7 22 18 1877 55019 7851 84% 16  550  99 90%
c -  0.68  6 22 19 1879 57023 5480 84% 15  550  99 90%
c ]  0.74  6 21 19 1883 63006 9053 84% 15  550  99 90%
c {  0.74  6 12 19 1883 63006 9053 89% 10  550  99 90%
c 
c  seconds  reductions     redundant  irredundant
c         MB     restarts         trail     variables
c          level      conflicts       glue      remaining
c 
c -  0.74  7 12 20 1883 63023 5308 89% 10  550  99 90%
c B  0.77  7 12 20 1898 66021 6834 89% 10  550  99 90%
c -  0.80  7 11 21 1979 69323 4988 88% 10  550  99 90%
c s  0.85  7 11 21 2022 73976 5158 88% 9  550  99 90%
c w  0.85  7 11 21 2022 73976 5157 88% 9  550  99 90%
c s  0.85  7 11 21 2022 73976 4065 88% 9  550  99 90%
c ^  0.85  7 11 21 2022 73976 4065 88% 9  550  99 90%
c -  0.87  7 11 22 2034 75925 3190 88% 9  550  99 90%
c W  0.90  7 11 22 2062 78024 4292 88% 9  550  99 90%
c -  0.94  7 11 23 2161 82825 4834 88% 9  550  99 90%
c -  1.01  7 11 24 2354 90026 6058 88% 9  550  99 90%
c #  1.02  7 11 24 2402 91025 6442 88% 9  550  99 90%
c -  1.08  7 11 25 2547 97528 6066 88% 9  550  99 90%
c s  1.14  7 11 25 2798 103665 6534 88% 9  550  99 90%
c w  1.15  7 11 25 2798 103665 6533 88% 9  550  99 90%
c s  1.15  7 11 25 2798 103665 5338 88% 9  550  99 90%
c B  1.16  7 11 25 2811 105026 6029 88% 9  550  99 90%
c -  1.17  7 11 26 2886 105329 3831 88% 9  550  99 90%
c -  1.24  7 11 27 3155 113429 5142 88% 9  550  99 90%
c W  1.30  7 11 27 3327 120027 8093 88% 9  550  99 90%
c 
c  seconds  reductions      redundant irredundant
c         MB     restarts          trail    variables
c          level      conflicts        glue     remaining
c 
c -  1.32  7 11 28 3356 121830 6347 88% 9  550  99 90%
c }  1.37  7 11 28 3497 127006 8934 88% 9  550  99 90%
c [  1.37  7 21 28 3497 127006 8934 84% 15  550  99 90%
c -  1.40  7 20 29 3497 130531 7434 84% 14  550  99 90%
c B  1.46  7 19 29 3501 136030 10755 84% 14  550  99 90%
c -  1.51  8 19 30 3504 139531 8526 85% 14  550  99 90%
c -  1.62  8 19 31 3505 148832 9173 84% 14  550  99 90%
c W  1.68  8 20 31 3506 153034 11876 84% 14  550  99 90%
c -  1.77  8 20 32 3506 158433 9843 83% 14  550  99 90%
c -  1.93  8 20 33 3506 168334 10486 83% 15  550  99 90%
c I  1.97  8 21 33 3509 171036 12344 83% 15  550  99 90%
c -  2.09  9 23 34 3513 178537 10931 83% 16  550  99 90%
c -  2.29  9 24 35 3519 189038 11398 82% 17  550  99 90%
c B  2.31  9 24 35 3520 190039 12075 82% 17  550  99 90%
c -  2.48  8 24 36 3521 199840 10775 82% 17  550  99 90%
c W  2.63  8 23 36 3527 210041 16837 82% 16  550  99 90%
c -  2.65  9 23 37 3528 210942 10461 82% 16  550  99 90%
c -  2.83 11 23 38 3534 222342 11064 81% 16  550  99 90%
c O  2.98 11 23 38 3536 231043 16857 81% 16  550  99 90%
c -  3.03 11 22 39 3536 234045 11482 81% 16  550  99 90%
c 
c  seconds  reductions       redundant  irredundant
c         MB     restarts           trail     variables
c          level      conflicts         glue      remaining
c 
c -  3.21 11 22 40 3537 246045 11325 80% 15  550  99 90%
c B  3.32 11 22 40 3538 253045 16124 80% 15  550  99 90%
c ]  3.36 11 22 40 3538 255008 17400 80% 15  550  99 90%
c {  3.36 11 11 40 3538 255008 17400 88% 9  550  99 90%
c -  3.42 11 11 41 3943 258349 11534 87% 9  550  99 90%
c -  3.61 11 10 42 5134 270949 8990 85% 9  550  99 90%
c p  3.66 11 10 42 5293 275010 10634 84% 9  550  99 90%
c F  3.67 11 10 42 5319 276047 11029 84% 9  550  99 90%
c -  3.75 11 10 43 5548 283849 9704 84% 9  550  99 90%
c s  3.75 11 10 43 5548 283849 7798 84% 9  550  99 90%
c w  3.75 11 10 43 5548 283849 7787 84% 9  550  99 90%
c -  3.88  8 11 44 7216 297049 8833 85% 9  550  99 90%
c B  3.91  8 11 44 7276 300048 10327 85% 9  550  99 90%
c -  4.03  9 11 45 7533 310550 10327 85% 9  550  99 90%
c -  4.19 10 11 46 7817 324350 11623 85% 9  550  99 90%
c W  4.21 10 11 46 7826 325049 11963 85% 9  550  99 90%
c -  4.34 10 11 47 8538 338450 11378 86% 9  550  99 90%
c #  4.47 10 11 47 8850 351050 17447 86% 9  550  99 90%
c -  4.49 10 11 48 8927 352851 11464 86% 9  550  99 90%
c -  4.63 10 11 49 9642 367552 11123 86% 9  550  99 90%
c 
c  seconds  reductions       redundant irredundant
c         MB     restarts           trail    variables
c          level      conflicts         glue     remaining
c 
c B  4.73 10 10 49 9911 378053 15941 86% 9  550  99 90%
c -  4.77 10 10 50 10049 382553 11440 87% 9  550  99 90%
c -  4.92 10 10 51 10768 397854 11292 87% 9  550  99 90%
c W  5.01 10 10 51 11209 406055 15048 87% 9  550  99 90%
c -  5.09 10 10 52 11376 413454 12025 87% 8  550  99 90%
c -  5.25 10 10 53 11806 429354 11986 87% 8  550  99 90%
c F  5.30 10 10 53 11968 435057 14493 87% 8  550  99 90%
c -  5.40 10 10 54 12307 445554 12205 87% 8  550  99 90%
c -  5.56 10 10 55 14068 462055 11194 87% 9  550  99 90%
c B  5.58 10 11 55 14129 465058 12512 87% 9  550  99 90%
c -  5.71 10 10 56 14559 478855 11182 87% 9  550  99 90%
c -  5.87 10 10 57 15071 495955 12476 87% 8  550  99 90%
c s  5.87 10 10 57 15071 495955 10002 87% 8  550  99 90%
c w  5.88 10 10 57 15071 495955 9995 87% 8  550  99 90%
c W  5.88 10 10 57 15095 496059 10025 87% 8  550  99 90%
c }  6.02 10 10 57 15323 511009 17223 87% 8  550  99 90%
c [  6.02 10 22 57 15323 511009 17223 80% 15  550  99 90%
c -  6.05 10 21 58 15323 513358 13106 80% 15  550  99 90%
c W  6.27 10 22 58 15323 528060 23519 81% 16  550  99 90%
c -  6.33 12 22 59 15323 531059 18237 81% 16  550  99 90%
c 
c  seconds  reductions        redundant  irredundant
c         MB      restarts           trail     variables
c          level       conflicts         glue      remaining
c 
c -  6.70 12 24 60 15329 549059 18925 81% 16  550  99 90%
c I  7.02 12 24 60 15336 561063 27153 80% 17  550  99 90%
c -  7.14 13 25 61 15338 567361 20068 80% 17  550  99 90%
c -  7.53 12 27 62 15345 585963 19210 80% 18  550  99 90%
c B  7.70 12 27 62 15351 595069 25496 80% 18  550  99 90%
c -  7.95 12 27 63 15353 604865 19683 80% 18  550  99 90%
c -  8.44 15 27 64 15354 624066 20444 79% 19  550  99 90%
c W  8.58 15 27 64 15358 630071 24423 79% 19  550  99 90%
c -  8.92 13 27 65 15366 643568 21075 79% 18  550  99 90%
c -  9.39 15 26 66 15373 663368 21640 78% 18  550  99 90%
c O  9.45 15 26 66 15375 666072 23572 78% 18  550  99 90%
c -  9.95 15 25 67 15383 683469 22116 78% 17  550  99 90%
c B 10.43 15 24 67 15385 703074 35316 77% 17  550  99 90%
c - 10.46 15 24 68 15385 703870 23237 77% 17  550  99 90%
c - 11.11 18 22 69 15386 724571 22480 77% 16  550  99 90%
c s 11.11 18 22 69 15386 724571 18444 77% 16  550  99 90%
c w 11.12 18 22 69 15386 724571 18432 77% 16  550  99 90%
c e 11.13 18 22 69 15386 724571  549 77% 16  540  98 89%
c s 11.13 18 22 69 15386 724571  482 77% 16  540  98 89%
c W 11.38 18 25 69 15386 741076 12860 78% 17  540  98 89%
c 
c  seconds  reductions        redundant  irredundant
c         MB      restarts           trail     variables
c          level       conflicts         glue      remaining
c 
c - 11.47 12 24 70 15387 745572 15784 78% 17  540  98 89%
c s 11.91 12 24 70 15387 763966 28349 78% 17  540  98 89%
c - 12.04 15 24 71 15387 766873 21690 78% 17  540  98 89%
c I 12.37 15 24 71 15387 780078 30617 77% 17  540  98 89%
c - 12.54 16 25 72 15387 788474 23519 77% 18  540  98 89%
c - 13.08 16 28 73 15389 810376 23568 77% 19  540  98 89%
c B 13.33 16 28 73 15394 820080 30149 77% 20  540  98 89%
c - 13.63 14 27 74 15401 832579 22394 77% 19  540  98 89%
c - 14.13 16 26 75 15410 855079 23059 77% 19  540  98 89%
c W 14.27 16 26 75 15414 861083 27334 77% 19  540  98 89%
c - 14.75 19 26 76 15418 877879 24315 77% 18  540  98 89%
c - 15.45 19 24 77 15425 900980 24786 76% 17  540  98 89%
c O 15.50 19 24 77 15425 903085 26193 76% 17  540  98 89%
c i 15.74 19 23 77 15431 912586 31391 76% 17  540  97 88%
c s 15.75 19 23 77 15431 912586 31333 76% 17  540  97 88%
c s 15.77 19 23 77 15431 912586 31263 76% 17  530  97 88%
c - 15.97 11 22 78 15433 924380 8964 76% 17  530  97 88%
c B 16.40 11 23 78 15446 946086 25128 76% 17  530  97 88%
c - 16.45 13 23 79 15447 948080 21321 76% 17  530  97 88%
c s 16.94 13 23 79 15449 961586 30287 76% 17  530  97 88%
c 
c  seconds  reductions        redundant  irredundant
c         MB      restarts           trail     variables
c          level       conflicts         glue      remaining
c 
c s 16.98 13 23 79 15449 961586 30185 76% 17  530  97 88%
c - 17.35 17 22 80 15449 972081 24845 76% 17  530  97 88%
c W 17.79 17 22 80 15450 990089 36394 76% 16  530  97 88%
c - 17.92 17 22 81 15450 996381 25915 76% 16  530  97 88%
c - 18.51 21 23 82 15457 1020981 26705 76% 17  530  97 88%
c ] 18.55 21 24 82 15459 1023009 28205 76% 17  530  97 88%
c { 18.55 21 10 82 15459 1023009 28205 87% 8  530  97 88%
c # 18.81 21 10 82 16532 1035090 32107 86% 8  530  97 88%
c - 18.99 21 10 83 16990 1045882 18488 86% 8  530  97 88%
c - 19.32 15 10 84 18192 1071083 18570 85% 8  530  97 88%
c B 19.44 15 10 84 18748 1081093 22629 85% 8  530  97 88%
c - 19.64 15 10 85 19831 1096583 18853 84% 8  530  97 88%
c - 19.95 15 10 86 20979 1122383 18887 84% 8  530  97 88%
c W 20.03 15 10 86 21356 1128094 21103 84% 8  530  97 88%
c - 20.28 15 10 87 22289 1148484 19081 83% 8  530  97 88%
c - 20.58 15 10 88 23355 1174885 19796 83% 8  530  97 88%
c F 20.59 15 10 88 23386 1176095 20298 83% 8  530  97 88%
c - 20.87 15 10 89 24663 1201585 18995 83% 8  530  97 88%
c B 21.13 15  9 89 25567 1225096 28593 84% 8  530  97 88%
c - 21.18 15  9 90 25791 1228585 19299 84% 8  530  97 88%
c 
c  seconds  reductions         redundant irredundant
c         MB      restarts            trail    variables
c          level        conflicts         glue     remaining
c 
c s 21.20 15  9 90 25847 1229993 15279 84% 8  530  97 88%
c w 21.20 15  9 90 25847 1229993 15263 84% 8  530  97 88%
c s 21.20 15  9 90 25847 1229993 14912 84% 8  530  97 88%
c - 21.47 15  9 91 27148 1255886 17606 84% 8  530  97 88%
c W 21.70 15  9 91 28097 1275098 25823 84% 8  530  97 88%
c - 21.80 15  9 92 28379 1283487 19539 84% 8  530  97 88%
c - 22.13 15  9 93 29653 1311388 20778 84% 8  530  97 88%
c # 22.32 15  9 93 30172 1326099 26936 84% 8  530  97 88%
c - 22.51 15  9 94 30695 1339588 21542 84% 8  530  97 88%
c i 22.59 15  9 94 30803 1344820 24161 84% 8  530  96 87%
c s 22.59 15  9 94 30803 1344820 22469 84% 8  530  96 87%
c w 22.60 15  9 94 30803 1344820 22441 84% 8  530  96 87%
c s 22.60 15  9 94 30803 1344820 22324 84% 8  520  96 87%
c - 22.85 15  9 95 32126 1368088 9314 84% 8  520  96 87%
c B 22.95 15  9 95 32919 1378100 13011 84% 8  520  96 87%
c - 23.13 15  9 96 33945 1396888 16427 84% 8  520  96 87%
c s 23.27 15  9 96 34451 1408196 11923 84% 8  520  96 87%
c w 23.27 15  9 96 34451 1408196 11917 84% 8  520  96 87%
c s 23.28 15  9 96 34451 1408196 7172 84% 8  520  96 87%
c - 23.45 15  9 97 35538 1425989 10136 84% 8  520  96 87%
c 
c  seconds  reductions         redundant irredundant
c         MB      restarts            trail    variables
c          level        conflicts         glue     remaining
c 
c W 23.51 15  9 97 35752 1431101 12223 84% 8  520  96 87%
c - 23.77 15  9 98 37032 1455391 16987 84% 8  520  96 87%
c - 24.13 15  9 99 38709 1485092 20358 84% 8  520  96 87%
c F 24.13 15  9 99 38709 1485103 20367 84% 8  520  96 87%
c - 24.47 15  9 100 41859 1515093 19889 84% 8  520  96 87%
c B 24.75 15  9 100 43286 1540106 29694 84% 8  520  96 87%
c - 24.81 15  9 101 43549 1545394 20451 84% 8  520  96 87%
c - 25.17 15  9 102 45363 1575994 21647 84% 8  520  96 87%
c W 25.42 15  9 102 46414 1596108 30069 84% 8  520  96 87%
c - 25.55 15  9 103 47051 1606899 22519 84% 8  520  96 87%
c - 25.92 15  9 104 48289 1638100 23405 84% 8  520  96 87%
c # 26.08 15  9 104 49041 1653110 29548 84% 8  520  96 87%
c - 26.27 15  9 105 50066 1669603 23066 84% 8  520  96 87%
c - 26.64 15  9 106 52331 1701403 21674 84% 8  520  96 87%
c B 26.74 15  9 106 52828 1711112 25390 84% 8  520  96 87%
c - 26.99 15  9 107 53886 1733503 22409 84% 8  520  96 87%
c - 27.35 15  9 108 55758 1765903 23042 84% 8  520  96 87%
c W 27.41 15  9 108 55866 1770117 24776 84% 8  520  96 87%
c - 27.75 15  9 109 57088 1798604 24297 84% 8  520  96 87%
c s 27.76 15  9 109 57088 1798604 18365 84% 8  520  96 87%
c 
c  seconds   reductions         redundant irredundant
c         MB       restarts            trail    variables
c          level         conflicts         glue     remaining
c 
c w 27.76 15  9 109 57088 1798604 18352 84% 8  520  96 87%
c F 28.12 15  9 109 58914 1830118 31966 84% 8  520  96 87%
c - 28.14 15  9 110 58999 1831605 22678 84% 8  520  96 87%
c - 28.50 15  9 111 60793 1864905 23543 84% 8  520  96 87%
c B 28.80 15  9 111 62310 1891120 33661 84% 8  520  96 87%
c - 28.89 15  9 112 62807 1898505 23138 84% 8  520  96 87%
c - 29.28 15  9 113 64985 1932405 23332 83% 8  520  96 87%
c W 29.55 15  9 113 66931 1953121 31269 83% 8  520  96 87%
c - 29.72 15  9 114 67534 1966606 23507 83% 8  520  96 87%
c - 30.17 15  9 115 69455 2001107 24299 83% 8  520  96 87%
c # 30.35 15  9 115 70039 2016122 30519 83% 8  520  96 87%
c - 30.62 15  9 116 71129 2035907 24937 82% 8  520  96 87%
c } 30.76 15  9 116 71869 2047009 29736 82% 8  520  96 87%
c [ 30.76 15 24 116 71869 2047009 29736 76% 17  520  96 87%
c i 30.78 15 23 116 71870 2048671 30601 77% 17  520  94 85%
c s 30.78 15 23 116 71870 2048671 28315 77% 17  501  94 85%
c - 31.15 15 22 117 71879 2071009 15434 77% 16  501  94 85%
c I 31.33 15 23 117 71883 2080124 22164 77% 17  501  94 85%
c - 31.89 19 22 118 71891 2106409 30568 77% 16  501  94 85%
c s 32.40 19 22 118 71894 2121096 37766 77% 16  501  94 85%
c 
c  seconds   reductions         redundant  irredundant
c         MB       restarts            trail     variables
c          level         conflicts         glue      remaining
c 
c w 32.45 19 22 118 71894 2121096 37759 77% 16  501  94 85%
c s 32.60 19 22 118 71894 2121096 36591 77% 16  501  94 85%
c i 32.85 19 21 118 71898 2129036 41384 77% 15  501  93 85%
c - 33.13 16 21 119 71906 2142109 11941 77% 15  491  93 85%
c B 33.19 16 21 119 71906 2145125 14035 77% 15  491  93 85%
c - 33.84 19 21 120 71921 2178111 30924 77% 15  491  93 85%
c s 34.41 19 21 120 71922 2198347 43753 77% 15  491  93 85%
c w 34.43 19 21 120 71922 2198347 43740 77% 15  491  93 85%
c s 34.51 19 21 120 71922 2198347 43597 77% 15  491  93 85%
c W 34.99 19 21 120 71923 2211129 51308 77% 15  491  93 85%
c - 35.11 19 21 121 71923 2214411 33901 77% 15  491  93 85%
c i 35.28 19 20 121 71923 2218736 36384 76% 15  491  92 84%
c - 36.10 18 21 122 71924 2251011 25720 76% 15  481  92 84%
c O 36.79 18 23 122 71924 2278132 45633 76% 16  481  92 84%
c s 36.87 18 22 122 71924 2279962 46379 76% 16  481  92 84%
c w 36.89 18 22 122 71924 2279962 46377 76% 16  481  92 84%
c s 36.92 18 22 122 71924 2279962 45929 76% 16  481  92 84%
c - 37.13 22 22 123 71924 2287914 35855 76% 16  481  92 84%
c i 37.43 22 21 123 71924 2298862 42670 76% 15  481  91 83%
c - 38.28 20 22 124 71925 2325114 30603 75% 16  472  91 83%
c 
c  seconds   reductions         redundant  irredundant
c         MB       restarts            trail     variables
c          level         conflicts         glue      remaining
c 
c B 39.07 20 22 124 71925 2346134 45471 74% 16  472  91 83%
c - 39.73 25 21 125 71925 2362614 40570 74% 16  472  91 83%
c s 40.03 25 21 125 71925 2365871 41536 73% 16  472  91 83%
c s 40.22 25 21 125 71925 2365871 40884 73% 16  472  91 83%
c i 41.54 25 20 125 71925 2395520 59591 73% 15  472  81 74%
c - 41.71 20 20 126 71925 2400416 12297 72% 15  417  81 74%
c i 42.01 20 19 126 71925 2413945 21074 72% 15  417  69 63%
c W 42.07 20 19 126 71925 2415135 10409 72% 15  346  69 63%
c i 42.12 20 19 126 71925 2417178 11680 72% 15  346  55 50%
c i 42.12 20 19 126 71925 2417273 11704 72% 15  346  45 41%
c i 42.12 20 19 126 71925 2417333 11727 72% 15  346  36 33%
c i 42.12 20 19 126 71925 2417334 11727 72% 15  346  35 32%
c i 42.12 20 19 126 71925 2417344 11728 72% 15  346  28 25%
c i 42.12 20 19 126 71925 2417345 11728 72% 15  346  27 25%
c ] 42.12 20 19 126 71925 2417347 11728 72% 15  346  20 18%
c 0 42.12 20 19 126 71925 2417347 11728 72% 15  346  20 18%
c 
c --- [ result ] -------------------------------------------------------------
c 
s UNSATISFIABLE
c 
c --- [ run-time profiling ] -------------------------------------------------
c 
c process time taken by individual solving procedures
c (percentage relative to process time for solving)
c 
c        40.85   96.99% search
c        25.24   59.92% stable
c        15.42   36.62% unstable
c         1.27    3.01% simplify
c         0.90    2.14% subsume
c         0.20    0.48% vivify
c         0.19    0.45% walk
c         0.08    0.19% probe
c         0.02    0.06% ternary
c         0.02    0.04% elim
c         0.00    0.00% parse
c         0.00    0.00% lucky
c   =================================
c        42.12  100.00% solve
c 
c last line shows process time for solving
c (percentage relative to total process time)
c 
c --- [ statistics ] ---------------------------------------------------------
c 
c chronological:            328755        13.60 %  of conflicts
c conflicts:               2417347     57392.88    per second
c decisions:               2740765     65071.50    per second
c eliminated:                   12        10.91 %  of all variables
c fixed:                        78        70.91 %  of all variables
c learned:                 2382468        98.56 %  per conflict
c learned_lits:           70056386       100.00 %  learned literals
c minimized:                     0         0.00 %  learned literals
c shrunken:               28511517        40.70 %  learned literals
c minishrunken:            2630529         3.75 %  learned literals
c otfs:                      42620         1.76 %  of conflict
c propagations:           37111953         0.88 M  per second
c reduced:                  981435        40.60 %  per conflict
c rephased:                     69     35034.01    interval
c restarts:                  71925        33.61    interval
c stabilizing:                   6        43.51 %  of conflicts
c subsumed:                1161796        48.74 %  of all clauses
c strengthened:             105688         4.43 %  of all clauses
c ternary:                     298         9.75 %  of resolved
c vivified:                    345         0.01 %  of all clauses
c walked:                       22    109879.41    interval
c weakened:                    131         6.03    average size
c 
c seconds are measured in process time for solving
c 
c --- [ resources ] ----------------------------------------------------------
c 
c total process time since initialization:        42.12    seconds
c total real time since initialization:           42.68    seconds
c maximum resident set size of process:           24.68    MB
c 
c --- [ shutting down ] ------------------------------------------------------
c 
c exit 20
